c ind 1 2 3 4 5 6 7 8 9 10 11 12 13 14 15 16 17 18 19 20 21 22 23 24 25 26 27 28 29 30 31 32 33 34 35 36 37 38 39 40 41 42 43 44 0
p cnf 547 1004              
44 -187 0
-38 4 -168 0
168 -171 0
-39 5 -169 0
169 -171 0
-40 6 -170 0
170 -171 0
171 -187 0
-39 -38 -172 0
172 -176 0
-38 173 0
-39 173 0
38 39 -173 0
-173 -40 -174 0
174 -176 0
40 173 -175 0
175 -176 0
176 -187 0
-41 4 -177 0
177 -180 0
-42 5 -178 0
178 -180 0
-43 6 -179 0
179 -180 0
180 -187 0
-42 -41 -181 0
181 -185 0
-41 182 0
-42 182 0
41 42 -182 0
-182 -43 -183 0
183 -185 0
43 182 -184 0
184 -185 0
185 -187 0
-44 7 -186 0
186 -187 0
187 364 0
11 -194 0
38 -194 0
-11 -38 194 0
-194 221 0
20 -203 0
39 -203 0
-20 -39 203 0
-203 221 0
29 -212 0
40 -212 0
-29 -40 212 0
-212 221 0
194 203 212 -221 0
36 -189 0
44 -189 0
-36 -44 189 0
221 -189 228 0
8 -191 0
38 -191 0
-8 -38 191 0
-191 218 0
17 -200 0
39 -200 0
-17 -39 200 0
-200 218 0
26 -209 0
40 -209 0
-26 -40 209 0
-209 218 0
191 200 209 -218 0
35 -188 0
44 -188 0
-35 -44 188 0
218 -188 227 0
-228 -227 -230 0
230 -234 0
-227 231 0
-228 231 0
14 -197 0
38 -197 0
-14 -38 197 0
-197 224 0
23 -206 0
39 -206 0
-23 -39 206 0
-206 224 0
32 -215 0
40 -215 0
-32 -40 215 0
-215 224 0
197 206 215 -224 0
37 -190 0
44 -190 0
-37 -44 190 0
224 -190 229 0
-231 -229 -232 0
232 -234 0
234 -354 0
11 -238 0
41 -238 0
-11 -41 238 0
-238 265 0
20 -247 0
42 -247 0
-20 -42 247 0
-247 265 0
29 -256 0
43 -256 0
-29 -43 256 0
-256 265 0
238 247 256 -265 0
-221 265 -281 0
281 -284 0
12 -195 0
38 -195 0
-12 -38 195 0
-195 222 0
21 -204 0
39 -204 0
-21 -39 204 0
-204 222 0
30 -213 0
40 -213 0
-30 -40 213 0
-213 222 0
195 204 213 -222 0
12 -239 0
41 -239 0
-12 -41 239 0
-239 266 0
21 -248 0
42 -248 0
-21 -42 248 0
-248 266 0
30 -257 0
43 -257 0
-30 -43 257 0
-257 266 0
239 248 257 -266 0
-222 266 -282 0
282 -284 0
13 -196 0
38 -196 0
-13 -38 196 0
-196 223 0
22 -205 0
39 -205 0
-22 -39 205 0
-205 223 0
31 -214 0
40 -214 0
-31 -40 214 0
-214 223 0
196 205 214 -223 0
13 -240 0
41 -240 0
-13 -41 240 0
-240 267 0
22 -249 0
42 -249 0
-22 -42 249 0
-249 267 0
31 -258 0
43 -258 0
-31 -43 258 0
-258 267 0
240 249 258 -267 0
-223 267 -283 0
283 -284 0
284 -289 0
-265 221 -285 0
285 -288 0
-266 222 -286 0
286 -288 0
-267 223 -287 0
287 -288 0
288 -289 0
289 -189 290 0
8 -235 0
41 -235 0
-8 -41 235 0
-235 262 0
17 -244 0
42 -244 0
-17 -42 244 0
-244 262 0
26 -253 0
43 -253 0
-26 -43 253 0
-253 262 0
235 244 253 -262 0
-218 262 -271 0
271 -274 0
9 -192 0
38 -192 0
-9 -38 192 0
-192 219 0
18 -201 0
39 -201 0
-18 -39 201 0
-201 219 0
27 -210 0
40 -210 0
-27 -40 210 0
-210 219 0
192 201 210 -219 0
9 -236 0
41 -236 0
-9 -41 236 0
-236 263 0
18 -245 0
42 -245 0
-18 -42 245 0
-245 263 0
27 -254 0
43 -254 0
-27 -43 254 0
-254 263 0
236 245 254 -263 0
-219 263 -272 0
272 -274 0
10 -193 0
38 -193 0
-10 -38 193 0
-193 220 0
19 -202 0
39 -202 0
-19 -39 202 0
-202 220 0
28 -211 0
40 -211 0
-28 -40 211 0
-211 220 0
193 202 211 -220 0
10 -237 0
41 -237 0
-10 -41 237 0
-237 264 0
19 -246 0
42 -246 0
-19 -42 246 0
-246 264 0
28 -255 0
43 -255 0
-28 -43 255 0
-255 264 0
237 246 255 -264 0
-220 264 -273 0
273 -274 0
274 -279 0
-262 218 -275 0
275 -278 0
-263 219 -276 0
276 -278 0
-264 220 -277 0
277 -278 0
278 -279 0
279 -188 280 0
-290 -280 -301 0
301 -305 0
-280 302 0
-290 302 0
14 -241 0
41 -241 0
-14 -41 241 0
-241 268 0
23 -250 0
42 -250 0
-23 -42 250 0
-250 268 0
32 -259 0
43 -259 0
-32 -43 259 0
-259 268 0
241 250 259 -268 0
-224 268 -291 0
291 -294 0
15 -198 0
38 -198 0
-15 -38 198 0
-198 225 0
24 -207 0
39 -207 0
-24 -39 207 0
-207 225 0
33 -216 0
40 -216 0
-33 -40 216 0
-216 225 0
198 207 216 -225 0
15 -242 0
41 -242 0
-15 -41 242 0
-242 269 0
24 -251 0
42 -251 0
-24 -42 251 0
-251 269 0
33 -260 0
43 -260 0
-33 -43 260 0
-260 269 0
242 251 260 -269 0
-225 269 -292 0
292 -294 0
16 -199 0
38 -199 0
-16 -38 199 0
-199 226 0
25 -208 0
39 -208 0
-25 -39 208 0
-208 226 0
34 -217 0
40 -217 0
-34 -40 217 0
-217 226 0
199 208 217 -226 0
16 -243 0
41 -243 0
-16 -41 243 0
-243 270 0
25 -252 0
42 -252 0
-25 -42 252 0
-252 270 0
34 -261 0
43 -261 0
-34 -43 261 0
-261 270 0
243 252 261 -270 0
-226 270 -293 0
293 -294 0
294 -299 0
-268 224 -295 0
295 -298 0
-269 225 -296 0
296 -298 0
-270 226 -297 0
297 -298 0
298 -299 0
299 -190 300 0
-302 -300 -303 0
303 -305 0
305 -353 0
220 -312 0
262 -312 0
-220 -262 312 0
-312 -315 0
219 -311 0
264 -311 0
-219 -264 311 0
-311 -315 0
-218 -263 307 0
-307 -315 0
315 -322 0
220 -314 0
264 -314 0
220 -313 0
263 -313 0
219 -310 0
263 -310 0
219 -309 0
262 -309 0
218 -306 0
262 -306 0
314 313 312 311 310 309 306 316 0
-188 218 -317 0
317 -320 0
-189 221 -318 0
318 -320 0
-190 224 -319 0
319 -320 0
-316 320 -321 0
321 -322 0
-188 322 -323 0
323 -352 0
223 -330 0
265 -330 0
-223 -265 330 0
-330 -333 0
222 -329 0
267 -329 0
-222 -267 329 0
-329 -333 0
-221 -266 325 0
-325 -333 0
333 -336 0
223 -332 0
267 -332 0
223 -331 0
266 -331 0
222 -328 0
266 -328 0
222 -327 0
265 -327 0
221 -324 0
265 -324 0
332 331 330 329 328 327 324 334 0
-334 320 -335 0
335 -336 0
-189 336 -337 0
337 -352 0
226 -344 0
268 -344 0
-226 -268 344 0
-344 -347 0
225 -343 0
270 -343 0
-225 -270 343 0
-343 -347 0
-224 -269 339 0
-339 -347 0
347 -350 0
226 -346 0
270 -346 0
226 -345 0
269 -345 0
225 -342 0
269 -342 0
225 -341 0
268 -341 0
224 -338 0
268 -338 0
346 345 344 343 342 341 338 348 0
-348 320 -349 0
349 -350 0
-190 350 -351 0
351 -352 0
352 -353 0
353 -354 0
354 363 0
-265 -356 0
189 -356 0
356 358 0
-262 -355 0
188 -355 0
355 358 0
355 356 -359 0
359 360 0
-268 -357 0
190 -357 0
357 360 0
-358 -360 362 0
-362 363 0
-363 364 0
-364 -365 0
-8 1 -45 0
45 -54 0
-9 1 -46 0
46 -54 0
-10 1 -47 0
47 -54 0
-11 2 -48 0
48 -54 0
-12 2 -49 0
49 -54 0
-13 2 -50 0
50 -54 0
-14 3 -51 0
51 -54 0
-15 3 -52 0
52 -54 0
-16 3 -53 0
53 -54 0
54 -74 0
-9 -8 -55 0
55 -59 0
-8 56 0
-9 56 0
8 9 -56 0
-56 -10 -57 0
57 -59 0
-10 58 0
-56 58 0
10 56 -58 0
58 -59 0
-1 59 -60 0
60 -73 0
-12 -11 -61 0
61 -65 0
-11 62 0
-12 62 0
11 12 -62 0
-62 -13 -63 0
63 -65 0
-13 64 0
-62 64 0
13 62 -64 0
64 -65 0
-2 65 -66 0
66 -73 0
-15 -14 -67 0
67 -71 0
-14 68 0
-15 68 0
14 15 -68 0
-68 -16 -69 0
69 -71 0
-16 70 0
-68 70 0
16 68 -70 0
70 -71 0
-3 71 -72 0
72 -73 0
73 -74 0
74 -79 0
45 -75 0
48 -75 0
51 -75 0
75 -78 0
46 -76 0
49 -76 0
52 -76 0
76 -78 0
47 -77 0
50 -77 0
53 -77 0
77 -78 0
78 -79 0
-4 79 -80 0
80 -153 0
-17 1 -81 0
81 -90 0
-18 1 -82 0
82 -90 0
-19 1 -83 0
83 -90 0
-20 2 -84 0
84 -90 0
-21 2 -85 0
85 -90 0
-22 2 -86 0
86 -90 0
-23 3 -87 0
87 -90 0
-24 3 -88 0
88 -90 0
-25 3 -89 0
89 -90 0
90 -110 0
-18 -17 -91 0
91 -95 0
-17 92 0
-18 92 0
17 18 -92 0
-92 -19 -93 0
93 -95 0
-19 94 0
-92 94 0
19 92 -94 0
94 -95 0
-1 95 -96 0
96 -109 0
-21 -20 -97 0
97 -101 0
-20 98 0
-21 98 0
20 21 -98 0
-98 -22 -99 0
99 -101 0
-22 100 0
-98 100 0
22 98 -100 0
100 -101 0
-2 101 -102 0
102 -109 0
-24 -23 -103 0
103 -107 0
-23 104 0
-24 104 0
23 24 -104 0
-104 -25 -105 0
105 -107 0
-25 106 0
-104 106 0
25 104 -106 0
106 -107 0
-3 107 -108 0
108 -109 0
109 -110 0
110 -115 0
81 -111 0
84 -111 0
87 -111 0
111 -114 0
82 -112 0
85 -112 0
88 -112 0
112 -114 0
83 -113 0
86 -113 0
89 -113 0
113 -114 0
114 -115 0
-5 115 -116 0
116 -153 0
-26 1 -117 0
117 -126 0
-27 1 -118 0
118 -126 0
-28 1 -119 0
119 -126 0
-29 2 -120 0
120 -126 0
-30 2 -121 0
121 -126 0
-31 2 -122 0
122 -126 0
-32 3 -123 0
123 -126 0
-33 3 -124 0
124 -126 0
-34 3 -125 0
125 -126 0
126 -146 0
-27 -26 -127 0
127 -131 0
-26 128 0
-27 128 0
26 27 -128 0
-128 -28 -129 0
129 -131 0
-28 130 0
-128 130 0
28 128 -130 0
130 -131 0
-1 131 -132 0
132 -145 0
-30 -29 -133 0
133 -137 0
-29 134 0
-30 134 0
29 30 -134 0
-134 -31 -135 0
135 -137 0
-31 136 0
-134 136 0
31 134 -136 0
136 -137 0
-2 137 -138 0
138 -145 0
-33 -32 -139 0
139 -143 0
-32 140 0
-33 140 0
32 33 -140 0
-140 -34 -141 0
141 -143 0
-34 142 0
-140 142 0
34 140 -142 0
142 -143 0
-3 143 -144 0
144 -145 0
145 -146 0
146 -151 0
117 -147 0
120 -147 0
123 -147 0
147 -150 0
118 -148 0
121 -148 0
124 -148 0
148 -150 0
119 -149 0
122 -149 0
125 -149 0
149 -150 0
150 -151 0
-6 151 -152 0
152 -153 0
153 -365 0
-58 154 0
-64 154 0
-70 154 0
-154 4 -157 0
157 -160 0
-94 155 0
-100 155 0
-106 155 0
-155 5 -158 0
158 -160 0
-130 156 0
-136 156 0
-142 156 0
-156 6 -159 0
159 -160 0
160 -365 0
-35 1 -161 0
161 -164 0
-36 2 -162 0
162 -164 0
-37 3 -163 0
163 -164 0
-7 164 -165 0
165 -365 0
-35 166 0
-36 166 0
-37 166 0
-166 7 -167 0
167 -365 0
-38 39 -366 0
366 -412 0
-38 -39 367 0
38 39 367 0
-39 39 367 0
-41 42 -368 0
-367 368 -369 0
369 -412 0
-41 -42 370 0
41 42 370 0
-42 42 370 0
-367 -370 371 0
-4 5 -372 0
-371 372 -373 0
373 -412 0
-4 -5 374 0
4 5 374 0
-5 5 374 0
-371 -374 375 0
-8 17 -376 0
-375 376 -377 0
377 -412 0
-8 -17 378 0
8 17 378 0
-17 17 378 0
-375 -378 379 0
-9 18 -380 0
-379 380 -381 0
381 -412 0
-9 -18 382 0
9 18 382 0
-18 18 382 0
-379 -382 383 0
-10 19 -384 0
-383 384 -385 0
385 -412 0
-10 -19 386 0
10 19 386 0
-19 19 386 0
-383 -386 387 0
-11 20 -388 0
-387 388 -389 0
389 -412 0
-11 -20 390 0
11 20 390 0
-20 20 390 0
-387 -390 391 0
-12 21 -392 0
-391 392 -393 0
393 -412 0
-12 -21 394 0
12 21 394 0
-21 21 394 0
-391 -394 395 0
-13 22 -396 0
-395 396 -397 0
397 -412 0
-13 -22 398 0
13 22 398 0
-22 22 398 0
-395 -398 399 0
-14 23 -400 0
-399 400 -401 0
401 -412 0
-14 -23 402 0
14 23 402 0
-23 23 402 0
-399 -402 403 0
-15 24 -404 0
-403 404 -405 0
405 -412 0
-15 -24 406 0
15 24 406 0
-24 24 406 0
-403 -406 407 0
-16 25 -408 0
-407 408 -409 0
409 -412 0
412 -546 0
-39 40 -413 0
413 -459 0
-39 -40 414 0
39 40 414 0
-40 40 414 0
-42 43 -415 0
-414 415 -416 0
416 -459 0
-42 -43 417 0
42 43 417 0
-43 43 417 0
-414 -417 418 0
-5 6 -419 0
-418 419 -420 0
420 -459 0
-5 -6 421 0
5 6 421 0
-6 6 421 0
-418 -421 422 0
-17 26 -423 0
-422 423 -424 0
424 -459 0
-17 -26 425 0
17 26 425 0
-26 26 425 0
-422 -425 426 0
-18 27 -427 0
-426 427 -428 0
428 -459 0
-18 -27 429 0
18 27 429 0
-27 27 429 0
-426 -429 430 0
-19 28 -431 0
-430 431 -432 0
432 -459 0
-19 -28 433 0
19 28 433 0
-28 28 433 0
-430 -433 434 0
-20 29 -435 0
-434 435 -436 0
436 -459 0
-20 -29 437 0
20 29 437 0
-29 29 437 0
-434 -437 438 0
-21 30 -439 0
-438 439 -440 0
440 -459 0
-21 -30 441 0
21 30 441 0
-30 30 441 0
-438 -441 442 0
-22 31 -443 0
-442 443 -444 0
444 -459 0
-22 -31 445 0
22 31 445 0
-31 31 445 0
-442 -445 446 0
-23 32 -447 0
-446 447 -448 0
448 -459 0
-23 -32 449 0
23 32 449 0
-32 32 449 0
-446 -449 450 0
-24 33 -451 0
-450 451 -452 0
452 -459 0
-24 -33 453 0
24 33 453 0
-33 33 453 0
-450 -453 454 0
-25 34 -455 0
-454 455 -456 0
456 -459 0
459 -546 0
-1 2 -460 0
460 -502 0
-1 -2 461 0
1 2 461 0
-2 2 461 0
-35 36 -462 0
-461 462 -463 0
463 -502 0
-35 -36 464 0
35 36 464 0
-36 36 464 0
-461 -464 465 0
-8 11 -466 0
-465 466 -467 0
467 -502 0
-8 -11 468 0
8 11 468 0
-11 11 468 0
-465 -468 469 0
-9 12 -470 0
-469 470 -471 0
471 -502 0
-9 -12 472 0
9 12 472 0
-12 12 472 0
-469 -472 473 0
-10 13 -474 0
-473 474 -475 0
475 -502 0
-10 -13 476 0
10 13 476 0
-13 13 476 0
-473 -476 477 0
-17 20 -478 0
-477 478 -479 0
479 -502 0
-17 -20 480 0
17 20 480 0
-20 20 480 0
-477 -480 481 0
-18 21 -482 0
-481 482 -483 0
483 -502 0
-18 -21 484 0
18 21 484 0
-21 21 484 0
-481 -484 485 0
-19 22 -486 0
-485 486 -487 0
487 -502 0
-19 -22 488 0
19 22 488 0
-22 22 488 0
-485 -488 489 0
-26 29 -490 0
-489 490 -491 0
491 -502 0
-26 -29 492 0
26 29 492 0
-29 29 492 0
-489 -492 493 0
-27 30 -494 0
-493 494 -495 0
495 -502 0
-27 -30 496 0
27 30 496 0
-30 30 496 0
-493 -496 497 0
-28 31 -498 0
-497 498 -499 0
499 -502 0
502 -546 0
-2 3 -503 0
503 -545 0
-2 -3 504 0
2 3 504 0
-3 3 504 0
-36 37 -505 0
-504 505 -506 0
506 -545 0
-36 -37 507 0
36 37 507 0
-37 37 507 0
-504 -507 508 0
-11 14 -509 0
-508 509 -510 0
510 -545 0
-11 -14 511 0
11 14 511 0
-14 14 511 0
-508 -511 512 0
-12 15 -513 0
-512 513 -514 0
514 -545 0
-12 -15 515 0
12 15 515 0
-15 15 515 0
-512 -515 516 0
-13 16 -517 0
-516 517 -518 0
518 -545 0
-13 -16 519 0
13 16 519 0
-16 16 519 0
-516 -519 520 0
-20 23 -521 0
-520 521 -522 0
522 -545 0
-20 -23 523 0
20 23 523 0
-23 23 523 0
-520 -523 524 0
-21 24 -525 0
-524 525 -526 0
526 -545 0
-21 -24 527 0
21 24 527 0
-24 24 527 0
-524 -527 528 0
-22 25 -529 0
-528 529 -530 0
530 -545 0
-22 -25 531 0
22 25 531 0
-25 25 531 0
-528 -531 532 0
-29 32 -533 0
-532 533 -534 0
534 -545 0
-29 -32 535 0
29 32 535 0
-32 32 535 0
-532 -535 536 0
-30 33 -537 0
-536 537 -538 0
538 -545 0
-30 -33 539 0
30 33 539 0
-33 33 539 0
-536 -539 540 0
-31 34 -541 0
-540 541 -542 0
542 -545 0
545 -546 0
365 0
546 0
